
;this file is automatically generated: Thu Jan 02 16:54:47 GMT 2020

;declarations generated

(declare-fun obj_efe2f167_86c7_441b_945f_8b3ebaee39ed ( Int) Int)
(declare-fun oclExcludes ( Int Int) Bool)
(declare-fun type_8e5b9585_68ff_4966_ab32_c9b40a34f46c_Class36 ( Int) Bool)
(declare-fun type_8e5b9585_68ff_4966_ab32_c9b40a34f46c_Class29 ( Int) Bool)
(declare-fun type_8e5b9585_68ff_4966_ab32_c9b40a34f46c_Class27 ( Int) Bool)
(declare-fun type_8e5b9585_68ff_4966_ab32_c9b40a34f46c_Class14 ( Int) Bool)
(declare-fun Cardinality ( Int) Int)
(declare-fun class14_Class14IntAttr3 ( Int) Int)
(declare-fun type_8e5b9585_68ff_4966_ab32_c9b40a34f46c_Class56 ( Int) Bool)
(declare-fun type_8e5b9585_68ff_4966_ab32_c9b40a34f46c_Class2 ( Int) Bool)
(declare-fun oclSelect ( Int Bool) Int)
(declare-fun Enum0 ( Int) Int)
(declare-fun Enum1 ( Int) Int)
(declare-fun Enum2 ( Int) Int)
(declare-fun container_ ( Int) Int)
(declare-fun oclIncludes ( Int Int) Bool)
(declare-fun ObjAt ( Int Int) Int)

;formula(s) generated
(assert (! (forall ((v Int)) (=> (and (and (and (and (and ( type_8e5b9585_68ff_4966_ab32_c9b40a34f46c_Class14 v )  ( type_8e5b9585_68ff_4966_ab32_c9b40a34f46c_Class56 v ) ) ( type_8e5b9585_68ff_4966_ab32_c9b40a34f46c_Class36 v ) ) ( type_8e5b9585_68ff_4966_ab32_c9b40a34f46c_Class27 v ) ) ( type_8e5b9585_68ff_4966_ab32_c9b40a34f46c_Class29 v ) ) ( type_8e5b9585_68ff_4966_ab32_c9b40a34f46c_Class2 v ) ) (>= ( class14_Class14IntAttr3 ( obj_efe2f167_86c7_441b_945f_8b3ebaee39ed v )  )  15))):named l0))
(assert (exists ((o Int)) (and (and (and (and (and ( type_8e5b9585_68ff_4966_ab32_c9b40a34f46c_Class14 ( obj_efe2f167_86c7_441b_945f_8b3ebaee39ed o )  )  ( type_8e5b9585_68ff_4966_ab32_c9b40a34f46c_Class56 ( obj_efe2f167_86c7_441b_945f_8b3ebaee39ed o )  ) ) ( type_8e5b9585_68ff_4966_ab32_c9b40a34f46c_Class36 ( obj_efe2f167_86c7_441b_945f_8b3ebaee39ed o )  ) ) ( type_8e5b9585_68ff_4966_ab32_c9b40a34f46c_Class27 ( obj_efe2f167_86c7_441b_945f_8b3ebaee39ed o )  ) ) ( type_8e5b9585_68ff_4966_ab32_c9b40a34f46c_Class29 ( obj_efe2f167_86c7_441b_945f_8b3ebaee39ed o )  ) ) ( type_8e5b9585_68ff_4966_ab32_c9b40a34f46c_Class2 ( obj_efe2f167_86c7_441b_945f_8b3ebaee39ed o )  ) )))

 ;end of formula 